720733
720733
720733
715009
698413
698413
698413
698413
698413
698413
691222
691222
691222
678910
678910
669804
669804
669804
664978
664978
664978
659865
658988
658988
658988
658988
658988
647939
647939
647939
647939
647939
647939
647939
647361
645845
641774
640499
640499
640499
640499
638428
638428
638084
626942
626942
626942
626942
626942
626942
626942
626942
624253
624253
624253
624253
624253
624253
620340
620340
620340
614787
614787
614787
614787
614787
612016
612016
612016
611161
611161
608129
608129
608129
608129
593291
593291
593291
593291
593291
593291
589804
589804
589804
589804
578213
578213
578213
578213
578213
575116
575116
575116
569754
569754
569754
569754
569754
569754
568721
